NAME : n40w40.004.508.tour
COMMENT : Length = 508
COMMENT : Found by LKH [Keld Helsgaun] Tue Nov  7 19:35:15 2017
TYPE : TOUR
DIMENSION : 41
TOUR_SECTION
1
4
15
18
33
34
10
39
9
26
13
24
27
29
2
25
16
22
14
8
40
35
7
12
36
20
21
23
30
37
11
17
6
38
28
31
19
32
3
41
5
-1
EOF
